/*********************************************
 * OPL 12.6.0.0 Data
 * Author: oliveras
 * Creation Date: 14/12/2018 at 10:21:27
 *********************************************/

 wr = 65;
 nProviders = 8;
 
 cost_worker = [100 200 150 275 120 310 412 250];
 available_workers = [16 12 6 20 16 10 6 40];
 cost_contract = [1000 1500 2300 1200 3000 1200 800 1000];
 country = [1 1 3 4 1 6 7 6];
 
 // c)
 cost_1 = 5;
 cost_2 = 7;
 cost_3 = 500;
